<number of tasks>
50

<cycle time>
1000

<order strength>
0.595


<task times>
1 40
2 313
3 59
4 136
5 244
6 158
7 144
8 247
9 113
10 123
11 70
12 197
13 26
14 53
15 181
16 60
17 92
18 84
19 43
20 93
21 244
22 55
23 93
24 195
25 75
26 61
27 130
28 161
29 132
30 206
31 81
32 79
33 52
34 362
35 34
36 33
37 265
38 224
39 106
40 193
41 93
42 89
43 88
44 51
45 189
46 114
47 155
48 379
49 134
50 112

<precedence relations>
1,9
2,9
3,9
4,9
5,7
5,8
5,9
5,10
5,11
5,12
6,7
6,11
6,12
6,13
6,14
7,39
8,39
9,15
9,16
9,17
9,18
10,27
11,20
11,28
12,19
12,25
13,19
13,29
14,19
14,21
14,35
15,25
15,36
16,20
16,41
17,20
17,26
17,29
17,36
18,21
18,25
19,20
19,22
19,23
19,24
20,39
21,39
22,27
23,27
24,27
25,26
25,28
25,29
26,39
27,30
27,31
27,32
27,33
27,34
28,38
28,40
29,35
31,36
32,37
33,38
33,40
34,38
35,37
36,39
37,39
37,40
37,41
38,39
38,41
39,42
39,43
39,44
39,45
39,46
41,49
42,48
43,47
44,48
45,50
46,48
47,49
48,49
48,50

<end>
